\ Model Routes
\ LP format - for model browsing. Use MPS format to capture full model detail.
Maximize
  1533.228206194839 R{0,0} + 2591.679024458567 R{0,1}
   + 2591.679024458567 R{0,2} - 249.2301939667805 R{0,3}
   - 17.2186063228686 R{0,4} + 1085.481438609255 R{0,5}
   + 1085.481438609255 R{0,6} + 1996.022822372194 R{0,7}
   + 2206.608581929614 R{0,8} + 1852.649670550964 R{0,9}
   + 2496.114587007034 R{0,10} + 1324.197464130266 R{0,11}
   + 803.9543587135784 R{0,12} + 1196.962243610067 R{0,13}
   + 1921.674269035279 R{0,14} + 1452.293809839529 R{0,15}
   + 1753.930097102194 R{0,16} + 884.464715303269 R{0,17}
   + 448.4436037745468 R{0,18} + 569.8265726990904 R{0,19}
   + 1757.320001453727 R{0,20} + 861.9828777738182 R{0,21}
   + 1123.065436557521 R{0,22} + 676.663594399983 R{0,23}
   + 2133.57762388922 R{0,24} + 1114.335541609385 R{0,25}
   + 1304.250500918765 R{0,26} - 256.140831891889 R{1,0}
   + 368.0124135284808 R{1,1} + 1065.704601311744 R{1,2}
   + 741.0429172983131 R{1,3} + 739.5387123453432 R{1,4}
   + 894.3451841532969 R{1,5} + 586.1533044762227 R{1,6}
   + 444.2586730013281 R{1,7} + 223.5535695116518 R{1,8}
   + 379.1925452150434 R{1,9} + 606.3685877003353 R{1,10}
   + 741.0429172983131 R{1,11} + 1073.945533121565 R{1,12}
   + 807.3028708758563 R{1,13} - 278.4443928850388 R{2,0}
   - 59.13410337035452 R{2,1} + 602.7748664658451 R{2,2}
   + 1100.505917706273 R{2,3} + 359.6260015013082 R{2,4}
   + 431.6363045050689 R{2,5} + 594.1507212540391 R{2,6}
   + 144.4600408296817 R{2,7} + 177.9883099738421 R{2,8}
   + 188.8677732867749 R{2,9} + 177.9883099738421 R{2,10}
   + 658.9260592062412 R{2,11} - 260.2482995389823 R{3,0}
   + 468.7985517431167 R{3,1} + 997.977727065218 R{3,2}
   + 351.2008298059455 R{3,3} + 669.0938327770482 R{3,4}
   + 218.838896062172 R{3,5} + 559.1653787529697 R{3,6}
   + 660.9007485669011 R{3,7} + 643.6066394260856 R{3,8}
   + 603.7233619929643 R{3,9} + 457.2876557935185 R{3,10}
   + 400.7216870445309 R{3,11} + 812.6804197162032 R{3,12}
   + 701.3497336171331 R{3,13} - 242.5208875955131 R{4,0}
   + 1055.572474837385 R{4,1} + 1576.196574514046 R{4,2}
   + 1104.060487362186 R{4,3} + 926.6049210864558 R{4,4}
   + 1365.326677281656 R{4,5} + 1948.139305753423 R{4,6}
   + 1400.234561450336 R{4,7} + 1094.135564208969 R{4,8}
   + 1274.36549094027 R{4,9} + 1132.248338857745 R{4,10}
   + 1151.29793792911 R{4,11} + 1005.632950959471 R{4,12}
   + 786.784893607153 R{4,13} + 728.4266200726279 R{4,14}
   + 1079.754636222949 R{4,15} + 344.3167119849063 R{4,16}
   + 1156.967533588411 R{4,17} + 772.5499646325056 R{4,18}
   + 1269.312261964853 R{4,19} + 341.2947980193435 R{4,20}
   + 1040.536187225096 R{4,21} + 1586.576560819774 R{4,22}
   + 1658.980305308444 R{4,23} + 1029.937220560304 R{4,24}
   + 551.5400767623764 R{4,25} + 546.9382157906329 R{4,26}
   - 231.9775664337766 R{5,0} + 326.98460213128 R{5,1}
   + 1480.650475450034 R{5,2} + 1480.650475450034 R{5,3}
   + 1347.779316830765 R{5,4} + 1270.221977151926 R{5,5}
   + 159.2017178284015 R{5,6} + 807.2006930098153 R{5,7}
   + 691.5411638621492 R{5,8} + 1011.278941751287 R{5,9}
   + 840.6385222095787 R{5,10} + 716.7838953809068 R{5,11}
   + 1154.025096028723 R{5,12} + 1154.025096028723 R{5,13}
   + 855.0410220465676 R{5,14} + 538.1307713234619 R{5,15}
   + 807.968760207697 R{5,16} + 448.8100336371216 R{5,17}
   + 673.9841847903501 R{5,18} + 1002.829714349143 R{5,19}
   - 231.1436095783099 R{6,0} + 1195.286596672249 R{6,1}
   + 2138.911397941406 R{6,2} + 2560.066428814385 R{6,3}
   + 2927.505945810451 R{6,4} + 1376.082554087973 R{6,5}
   + 1573.138079720018 R{6,6} + 1345.527564992424 R{6,7}
   + 2518.004260041272 R{6,8} + 1721.155392147646 R{6,9}
   + 1372.444613833164 R{6,10} + 1402.538237483219 R{6,11}
   + 2319.079206867519 R{6,12} + 1027.822649954488 R{6,13}
   + 1915.624346801503 R{6,14} + 1372.444613833164 R{6,15}
   + 2304.341581491446 R{6,16} + 2157.759481199679 R{6,17}
   + 2127.563708227307 R{6,18} + 2407.45008567056 R{6,19}
   + 2855.584226833269 R{6,20} + 2391.128039982909 R{6,21}
Subject To
 R00: R{0,0} <= 1
 R01: R{0,1} <= 1
 R02: R{0,2} <= 1
 R03: R{0,3} <= 1
 R04: R{0,4} <= 1
 R05: R{0,5} <= 1
 R06: R{0,6} <= 1
 R07: R{0,7} <= 1
 R08: R{0,8} <= 1
 R09: R{0,9} <= 1
 R010: R{0,10} <= 1
 R011: R{0,11} <= 1
 R012: R{0,12} <= 1
 R013: R{0,13} <= 1
 R014: R{0,14} <= 1
 R015: R{0,15} <= 1
 R016: R{0,16} <= 1
 R017: R{0,17} <= 1
 R018: R{0,18} <= 1
 R019: R{0,19} <= 1
 R020: R{0,20} <= 1
 R021: R{0,21} <= 1
 R022: R{0,22} <= 1
 R023: R{0,23} <= 1
 R024: R{0,24} <= 1
 R025: R{0,25} <= 1
 R026: R{0,26} <= 1
 R027: R{1,0} <= 1
 R028: R{1,1} <= 1
 R029: R{1,2} <= 1
 R030: R{1,3} <= 1
 R031: R{1,4} <= 1
 R032: R{1,5} <= 1
 R033: R{1,6} <= 1
 R034: R{1,7} <= 1
 R035: R{1,8} <= 1
 R036: R{1,9} <= 1
 R037: R{1,10} <= 1
 R038: R{1,11} <= 1
 R039: R{1,12} <= 1
 R040: R{1,13} <= 1
 R041: R{2,0} <= 1
 R042: R{2,1} <= 1
 R043: R{2,2} <= 1
 R044: R{2,3} <= 1
 R045: R{2,4} <= 1
 R046: R{2,5} <= 1
 R047: R{2,6} <= 1
 R048: R{2,7} <= 1
 R049: R{2,8} <= 1
 R050: R{2,9} <= 1
 R051: R{2,10} <= 1
 R052: R{2,11} <= 1
 R053: R{3,0} <= 1
 R054: R{3,1} <= 1
 R055: R{3,2} <= 1
 R056: R{3,3} <= 1
 R057: R{3,4} <= 1
 R058: R{3,5} <= 1
 R059: R{3,6} <= 1
 R060: R{3,7} <= 1
 R061: R{3,8} <= 1
 R062: R{3,9} <= 1
 R063: R{3,10} <= 1
 R064: R{3,11} <= 1
 R065: R{3,12} <= 1
 R066: R{3,13} <= 1
 R067: R{4,0} <= 1
 R068: R{4,1} <= 1
 R069: R{4,2} <= 1
 R070: R{4,3} <= 1
 R071: R{4,4} <= 1
 R072: R{4,5} <= 1
 R073: R{4,6} <= 1
 R074: R{4,7} <= 1
 R075: R{4,8} <= 1
 R076: R{4,9} <= 1
 R077: R{4,10} <= 1
 R078: R{4,11} <= 1
 R079: R{4,12} <= 1
 R080: R{4,13} <= 1
 R081: R{4,14} <= 1
 R082: R{4,15} <= 1
 R083: R{4,16} <= 1
 R084: R{4,17} <= 1
 R085: R{4,18} <= 1
 R086: R{4,19} <= 1
 R087: R{4,20} <= 1
 R088: R{4,21} <= 1
 R089: R{4,22} <= 1
 R090: R{4,23} <= 1
 R091: R{4,24} <= 1
 R092: R{4,25} <= 1
 R093: R{4,26} <= 1
 R094: R{5,0} <= 1
 R095: R{5,1} <= 1
 R096: R{5,2} <= 1
 R097: R{5,3} <= 1
 R098: R{5,4} <= 1
 R099: R{5,5} <= 1
 R0100: R{5,6} <= 1
 R0101: R{5,7} <= 1
 R0102: R{5,8} <= 1
 R0103: R{5,9} <= 1
 R0104: R{5,10} <= 1
 R0105: R{5,11} <= 1
 R0106: R{5,12} <= 1
 R0107: R{5,13} <= 1
 R0108: R{5,14} <= 1
 R0109: R{5,15} <= 1
 R0110: R{5,16} <= 1
 R0111: R{5,17} <= 1
 R0112: R{5,18} <= 1
 R0113: R{5,19} <= 1
 R0114: R{6,0} <= 1
 R0115: R{6,1} <= 1
 R0116: R{6,2} <= 1
 R0117: R{6,3} <= 1
 R0118: R{6,4} <= 1
 R0119: R{6,5} <= 1
 R0120: R{6,6} <= 1
 R0121: R{6,7} <= 1
 R0122: R{6,8} <= 1
 R0123: R{6,9} <= 1
 R0124: R{6,10} <= 1
 R0125: R{6,11} <= 1
 R0126: R{6,12} <= 1
 R0127: R{6,13} <= 1
 R0128: R{6,14} <= 1
 R0129: R{6,15} <= 1
 R0130: R{6,16} <= 1
 R0131: R{6,17} <= 1
 R0132: R{6,18} <= 1
 R0133: R{6,19} <= 1
 R0134: R{6,20} <= 1
 R0135: R{6,21} <= 1
 R1_0: R{0,0} + R{0,1} + R{0,2} + R{0,3} + R{0,4} + R{0,5} + R{0,6}
   + R{0,7} + R{0,8} + R{0,9} + R{0,10} + R{0,11} + R{0,12} + R{0,13}
   + R{0,14} + R{0,15} + R{0,16} + R{0,17} + R{0,18} + R{0,19} + R{0,20}
   + R{0,21} + R{0,22} + R{0,23} + R{0,24} + R{0,25} + R{0,26} <= 1
 R1_1: R{1,0} + R{1,1} + R{1,2} + R{1,3} + R{1,4} + R{1,5} + R{1,6}
   + R{1,7} + R{1,8} + R{1,9} + R{1,10} + R{1,11} + R{1,12} + R{1,13} <= 1
 R1_2: R{2,0} + R{2,1} + R{2,2} + R{2,3} + R{2,4} + R{2,5} + R{2,6}
   + R{2,7} + R{2,8} + R{2,9} + R{2,10} + R{2,11} <= 1
 R1_3: R{3,0} + R{3,1} + R{3,2} + R{3,3} + R{3,4} + R{3,5} + R{3,6}
   + R{3,7} + R{3,8} + R{3,9} + R{3,10} + R{3,11} + R{3,12} + R{3,13} <= 1
 R1_4: R{4,0} + R{4,1} + R{4,2} + R{4,3} + R{4,4} + R{4,5} + R{4,6}
   + R{4,7} + R{4,8} + R{4,9} + R{4,10} + R{4,11} + R{4,12} + R{4,13}
   + R{4,14} + R{4,15} + R{4,16} + R{4,17} + R{4,18} + R{4,19} + R{4,20}
   + R{4,21} + R{4,22} + R{4,23} + R{4,24} + R{4,25} + R{4,26} <= 1
 R1_5: R{5,0} + R{5,1} + R{5,2} + R{5,3} + R{5,4} + R{5,5} + R{5,6}
   + R{5,7} + R{5,8} + R{5,9} + R{5,10} + R{5,11} + R{5,12} + R{5,13}
   + R{5,14} + R{5,15} + R{5,16} + R{5,17} + R{5,18} + R{5,19} <= 1
 R1_6: R{6,0} + R{6,1} + R{6,2} + R{6,3} + R{6,4} + R{6,5} + R{6,6}
   + R{6,7} + R{6,8} + R{6,9} + R{6,10} + R{6,11} + R{6,12} + R{6,13}
   + R{6,14} + R{6,15} + R{6,16} + R{6,17} + R{6,18} + R{6,19} + R{6,20}
   + R{6,21} <= 1
 R2_0: 7 R{0,0} + 7 R{0,1} + 7 R{0,2} + 7 R{0,8} + 7 R{0,9} + 7 R{0,10}
   + 7 R{0,11} + 7 R{0,12} + 7 R{0,13} + 7 R{0,14} + 7 R{0,16} + 7 R{0,17}
   + 7 R{0,18} + 7 R{0,19} + 7 R{0,20} + 7 R{0,21} + 7 R{0,24} + 7 R{0,25}
   + 7 R{0,26} <= 7
 R2_1: 10 R{0,15} + 10 R{1,1} + 10 R{1,2} + 10 R{1,3} + 10 R{1,5}
   + 10 R{1,7} + 10 R{1,11} + 10 R{1,12} + 10 R{1,13} + 10 R{2,9}
   + 10 R{5,11} <= 10
 R2_2: <= 0
 R2_3: 4 R{3,1} + 4 R{3,2} + 4 R{3,3} + 4 R{3,5} + 4 R{3,13} <= 4
 R2_4: <= 0
 R2_5: 5 R{0,4} + 5 R{0,5} + 5 R{0,6} + 3 R{5,2} + 3 R{5,3} + 5 R{5,4}
   + 3 R{5,5} + 5 R{5,7} + 5 R{5,10} + 5 R{5,12} + 5 R{5,13} + 5 R{5,14}
   <= 5
 R2_6: 10 R{1,1} + 10 R{1,2} + 10 R{1,12} + 10 R{5,5} + 10 R{5,14}
   + 10 R{5,16} + 10 R{5,18} <= 10
 R2_7: 6 R{1,1} + 6 R{1,2} + 6 R{1,3} + 6 R{1,11} + 6 R{1,12} + 6 R{1,13}
   <= 6
 R2_8: <= 0
 R2_9: 12 R{4,1} + 12 R{4,2} + 12 R{4,3} + 12 R{4,4} + 12 R{4,5}
   + 12 R{4,6} + 12 R{4,7} + 12 R{4,8} + 12 R{4,9} + 12 R{4,10}
   + 12 R{4,11} + 12 R{4,12} + 12 R{4,13} + 12 R{4,14} + 12 R{4,15}
   + 12 R{4,16} + 12 R{4,17} + 12 R{4,18} + 12 R{4,19} + 12 R{4,20}
   + 12 R{4,21} + 12 R{4,22} + 12 R{4,23} + 12 R{4,24} + 12 R{4,25}
   + 12 R{4,26} <= 12
 R2_10: 8 R{6,1} + 8 R{6,2} + 8 R{6,4} + 8 R{6,5} + 8 R{6,7} <= 8
 R2_11: 15 R{6,13} <= 15
 R2_12: <= 0
 R2_13: <= 0
 R2_14: <= 0
 R2_15: 11 R{0,0} + 11 R{0,1} + 11 R{0,2} + 11 R{0,8} + 11 R{0,9}
   + 11 R{0,10} + 11 R{0,13} + 11 R{0,14} + 11 R{0,16} + 11 R{0,17}
   + 11 R{0,20} + 11 R{0,21} + 11 R{0,25} + 11 R{0,26} + 11 R{4,1}
   + 11 R{4,2} + 11 R{4,3} + 11 R{4,8} + 11 R{4,14} <= 11
 R2_16: <= 0
 R2_17: 11 R{0,16} + 11 R{0,25} <= 11
 R2_18: <= 0
 R2_19: 8 R{0,8} + 11 R{0,10} + 11 R{0,16} + 11 R{1,4} + 11 R{1,6}
   + 11 R{1,7} + 10 R{3,9} + 11 R{4,1} + 11 R{4,2} + 11 R{4,3} + 11 R{4,4}
   + 11 R{4,5} + 11 R{4,6} + 11 R{4,7} + 11 R{4,8} + 11 R{4,9} + 11 R{4,10}
   + 11 R{4,13} + 11 R{4,15} + 11 R{4,17} + 11 R{4,19} + 11 R{4,22}
   + 11 R{5,9} + 11 R{5,11} <= 11
 R2_20: 13 R{0,7} + 13 R{0,14} + 13 R{0,20} + 13 R{0,24} + 13 R{1,3}
   + 13 R{1,4} + 13 R{1,5} + 13 R{1,6} + 13 R{1,8} + 13 R{1,10}
   + 13 R{1,11} + 13 R{2,3} + 13 R{2,4} + 13 R{2,5} + 13 R{2,6} + 13 R{2,8}
   + 13 R{2,10} + 13 R{2,11} + 13 R{3,10} + 13 R{4,11} + 13 R{5,7}
   + 13 R{5,10} + 13 R{5,15} + 13 R{5,17} + 13 R{5,19} + 13 R{6,1}
   + 13 R{6,2} + 13 R{6,3} + 13 R{6,4} + 13 R{6,5} + 13 R{6,6} + 13 R{6,8}
   + 13 R{6,12} + 13 R{6,14} + 13 R{6,17} + 13 R{6,19} + 13 R{6,20} <= 13
 R2_21: <= 0
 R2_22: 10 R{4,25} <= 10
 R2_23: 14 R{4,5} + 14 R{4,17} + 14 R{4,23} + 14 R{6,3} + 14 R{6,4}
   + 14 R{6,8} + 14 R{6,9} + 14 R{6,10} + 14 R{6,11} + 14 R{6,12}
   + 14 R{6,14} + 14 R{6,15} + 14 R{6,16} + 14 R{6,17} + 14 R{6,18}
   + 14 R{6,19} + 14 R{6,20} + 14 R{6,21} <= 14
 R2_24: 10 R{1,9} + 10 R{2,5} + 10 R{2,11} + 10 R{3,1} + 10 R{3,2}
   + 10 R{3,3} + 10 R{3,7} + 10 R{3,8} + 10 R{3,9} + 10 R{3,10}
   + 10 R{3,11} + 10 R{3,12} + 10 R{3,13} + 10 R{4,16} <= 10
 R2_25: 13 R{0,0} + 13 R{0,1} + 13 R{0,2} + 13 R{0,8} + 13 R{0,9}
   + 13 R{0,10} + 13 R{0,11} + 13 R{0,13} + 13 R{0,14} + 13 R{0,17}
   + 13 R{0,19} + 13 R{0,20} + 13 R{0,24} + 13 R{0,26} + 13 R{4,1}
   + 13 R{4,2} + 13 R{4,3} + 13 R{4,4} + 13 R{4,5} + 13 R{4,6} + 13 R{4,7}
   + 13 R{4,8} + 13 R{4,9} + 13 R{4,10} + 13 R{4,11} + 13 R{4,12}
   + 13 R{4,14} + 13 R{4,15} + 13 R{4,16} + 13 R{4,17} + 13 R{4,18}
   + 13 R{4,19} + 13 R{4,20} + 13 R{4,21} + 13 R{4,22} + 13 R{4,23}
   + 13 R{4,24} + 13 R{4,26} <= 13
 R2_26: 6 R{1,9} + 6 R{5,1} + 6 R{5,2} + 6 R{5,3} + 6 R{5,4} + 6 R{5,5}
   + 6 R{5,6} + 6 R{5,7} + 6 R{5,8} + 6 R{5,9} + 6 R{5,12} + 6 R{5,13}
   + 6 R{5,14} + 6 R{5,16} + 6 R{5,19} <= 6
 R2_27: 5 R{0,5} + 5 R{0,6} + 5 R{0,7} + 5 R{0,13} + 5 R{0,15} + 5 R{0,24}
   + 5 R{0,26} + 5 R{1,5} + 5 R{1,10} + 5 R{2,6} + 5 R{2,7} + 5 R{3,12}
   + 5 R{4,19} + 5 R{4,24} + 5 R{5,2} + 5 R{5,3} + 5 R{5,4} + 5 R{6,1}
   + 5 R{6,2} + 5 R{6,3} + 5 R{6,4} + 5 R{6,5} + 5 R{6,6} + 5 R{6,7}
   + 5 R{6,8} + 5 R{6,12} + 5 R{6,16} + 5 R{6,18} + 5 R{6,19} + 5 R{6,20}
   + 5 R{6,21} <= 5
 R2_28: <= 0
 R2_29: <= 0
 R2_30: <= 0
 R2_31: <= 0
 R2_32: 7 R{5,1} + 7 R{5,2} + 7 R{5,3} + 7 R{5,4} + 7 R{5,5} + 7 R{5,7}
   + 7 R{5,9} + 7 R{5,10} + 7 R{5,12} + 7 R{5,13} + 7 R{5,14} + 7 R{5,15}
   + 7 R{5,16} + 7 R{5,17} + 7 R{5,18} + 7 R{5,19} <= 7
 R2_33: 12 R{0,22} + 12 R{0,23} <= 12
 R2_34: 5 R{0,0} + 5 R{0,1} + 5 R{0,2} + 5 R{0,8} + 5 R{0,9} + 5 R{0,10}
   + 5 R{0,11} + 5 R{0,13} + 5 R{0,14} + 5 R{0,16} + 5 R{0,20} + 5 R{0,25}
   + 5 R{6,8} + 5 R{6,17} <= 5
 R2_35: <= 0
 R2_36: 15 R{5,1} + 15 R{5,2} + 15 R{5,3} + 15 R{5,5} + 15 R{5,6}
   + 15 R{5,7} + 15 R{5,8} + 15 R{5,15} + 15 R{5,17} <= 16
 R2_37: 5 R{0,22} + 5 R{1,9} + 5 R{3,1} + 5 R{3,2} + 5 R{3,3} + 5 R{3,4}
   + 5 R{3,5} + 5 R{3,6} + 5 R{3,8} + 5 R{3,9} + 5 R{3,13} <= 5
 R2_38: <= 0
 R2_39: 15 R{0,0} + 15 R{0,1} + 15 R{0,2} + 15 R{0,8} + 15 R{0,10}
   + 15 R{0,13} + 15 R{0,14} + 15 R{0,16} + 15 R{0,17} + 15 R{0,20}
   + 15 R{0,24} + 15 R{0,25} + 15 R{0,26} <= 17
 R2_40: 15 R{2,1} + 15 R{2,2} + 15 R{2,3} + 15 R{2,4} + 15 R{2,9}
   + 15 R{2,11} <= 15
 R2_41: 5 R{0,0} + 5 R{0,1} + 5 R{0,2} + 5 R{0,7} + 5 R{0,9} + 5 R{0,10}
   + 5 R{0,12} + 5 R{0,14} + 5 R{0,16} + 5 R{0,18} + 5 R{0,20} + 5 R{0,24}
   + 5 R{0,26} + 5 R{3,7} + 5 R{3,8} + 5 R{3,12} + 5 R{3,13} + 5 R{4,13}
   + 5 R{4,22} + 5 R{4,24} + 5 R{5,4} + 5 R{5,12} + 5 R{5,13} + 5 R{6,4}
   + 5 R{6,5} + 5 R{6,9} + 5 R{6,10} + 5 R{6,11} + 5 R{6,12} + 5 R{6,14}
   + 5 R{6,15} + 5 R{6,16} + 5 R{6,18} + 5 R{6,19} + 5 R{6,20} <= 5
 R2_42: 4 R{2,1} + 4 R{2,2} + 4 R{2,3} + 4 R{2,11} <= 4
 R2_43: <= 0
 R2_44: <= 0
 R2_45: <= 0
 R2_46: 9 R{0,9} + 9 R{0,11} + 9 R{0,12} + 9 R{0,21} + 9 R{4,6} + 9 R{4,7}
   + 9 R{4,9} + 9 R{4,12} + 9 R{4,21} + 9 R{4,22} <= 9
 R2_47: 7 R{0,0} + 7 R{0,1} + 7 R{0,2} + 7 R{0,8} + 7 R{0,13} + 2 R{0,24}
   + 7 R{5,1} + 7 R{5,2} + 7 R{5,3} + 7 R{5,4} + 7 R{5,6} + 7 R{5,12}
   + 7 R{5,13} <= 7
 R2_48: 4 R{4,1} + 4 R{4,2} + 4 R{4,3} + 4 R{4,4} + 4 R{4,5} + 4 R{4,6}
   + 4 R{4,8} + 4 R{4,9} + 4 R{4,10} + 4 R{4,11} + 4 R{4,12} + 4 R{4,14}
   + 4 R{4,15} + 4 R{4,18} + 4 R{4,19} + 4 R{4,20} + 4 R{4,22} + 4 R{4,23}
   + 4 R{4,24} + 4 R{4,25} + 4 R{4,26} <= 4
 R2_49: <= 0
 R2_50: <= 0
 R2_51: 11 R{1,3} + 11 R{1,4} + 11 R{1,11} + 11 R{5,18} <= 11
 R2_52: <= 0
 R2_53: 13 R{4,1} + 13 R{4,2} + 13 R{4,3} + 13 R{4,4} + 13 R{4,5}
   + 13 R{4,6} + 13 R{4,8} + 13 R{4,9} + 13 R{4,11} + 13 R{4,14}
   + 13 R{4,15} + 13 R{4,16} + 13 R{4,17} + 13 R{4,19} + 13 R{4,20}
   + 13 R{4,23} + 13 R{4,25} <= 13
 R2_54: 9 R{3,1} + 9 R{3,2} + 9 R{3,3} + 9 R{3,4} + 9 R{3,5} + 9 R{3,7}
   + 9 R{3,8} + 9 R{3,9} + 9 R{3,11} + 9 R{3,13} <= 9
 R2_55: 8 R{6,1} + 8 R{6,2} + 8 R{6,3} + 8 R{6,4} + 8 R{6,7} + 8 R{6,8}
   + 8 R{6,9} + 8 R{6,10} + 8 R{6,12} + 8 R{6,15} + 8 R{6,16} + 8 R{6,17}
   + 8 R{6,18} + 8 R{6,19} + 8 R{6,20} + 8 R{6,21} <= 8
 R2_56: 6 R{0,1} + 6 R{0,2} + 6 R{0,7} + 6 R{0,9} + 6 R{0,11} + 6 R{0,17}
   + 6 R{0,21} + 6 R{4,7} + 6 R{4,12} + 6 R{4,21} + 6 R{6,4} + 6 R{6,8}
   + 6 R{6,9} + 6 R{6,11} + 6 R{6,13} + 6 R{6,17} <= 6
 R2_57: <= 0
 R2_58: <= 0
 R2_59: 10 R{0,19} + 10 R{0,22} + 10 R{0,23} + 10 R{4,10} + 10 R{4,18}
   + 10 R{4,26} + 10 R{6,13} <= 10
 R2_60: <= 0
 R2_61: 9 R{0,22} + 9 R{0,23} + 9 R{6,10} + 9 R{6,11} + 9 R{6,15}
   + 9 R{6,16} + 9 R{6,18} + 9 R{6,19} + 9 R{6,21} <= 9
 R2_62: <= 0
 R2_63: <= 0
 R2_64: <= 0
 R2_65: 5 R{6,1} + 5 R{6,2} + 5 R{6,3} + 5 R{6,4} + 5 R{6,5} + 5 R{6,6}
   + 5 R{6,7} + 5 R{6,8} + 5 R{6,9} + 5 R{6,11} + 5 R{6,12} + 5 R{6,14}
   + 5 R{6,16} + 5 R{6,17} + 5 R{6,18} + 5 R{6,19} + 5 R{6,20} + 5 R{6,21}
   <= 5
 R2_66: 7 R{3,11} + 7 R{6,1} + 7 R{6,2} + 7 R{6,3} + 7 R{6,4} + 7 R{6,5}
   + 7 R{6,6} + 7 R{6,8} + 7 R{6,12} + 7 R{6,14} + 7 R{6,16} + 7 R{6,18}
   + 7 R{6,20} + 7 R{6,21} <= 7
 R2_67: 3 R{0,7} + 3 R{0,8} + 3 R{0,24} + 3 R{0,25} + 3 R{6,4} + 3 R{6,6}
   + 3 R{6,8} + 3 R{6,9} + 3 R{6,10} + 3 R{6,12} + 3 R{6,13} + 3 R{6,14}
   + 3 R{6,15} + 3 R{6,16} + 3 R{6,17} + 3 R{6,18} + 3 R{6,19} <= 3
 R2_68: 6 R{4,1} + 6 R{4,3} + 6 R{4,8} + 6 R{4,11} + 6 R{4,14} + 6 R{4,15}
   + 6 R{4,19} + 6 R{6,2} + 6 R{6,3} + 6 R{6,4} + 6 R{6,6} + 6 R{6,16}
   + 6 R{6,20} + 6 R{6,21} <= 6
 R2_69: 7 R{0,0} + 7 R{0,1} + 7 R{0,2} + 7 R{0,8} + 7 R{0,10} + 7 R{0,14}
   + 7 R{0,16} + 7 R{0,20} + 7 R{0,22} + 7 R{0,23} + 7 R{0,25} + 7 R{4,1}
   + 7 R{4,2} + 7 R{4,3} + 7 R{4,4} + 7 R{4,5} + 7 R{4,6} + 7 R{4,7}
   + 7 R{4,8} + 7 R{4,9} + 7 R{4,10} + 7 R{4,11} + 7 R{4,13} + 7 R{4,14}
   + 7 R{4,15} + 7 R{4,17} + 7 R{4,18} + 7 R{4,21} + 7 R{4,22} + 7 R{4,23}
   + 7 R{4,25} + 7 R{5,9} + 7 R{5,12} + 7 R{5,13} + 7 R{6,14} + 7 R{6,17}
   <= 7
 R2_70: 11 R{1,1} + 11 R{1,2} + 11 R{1,12} + 11 R{1,13} <= 11
 R2_71: 7 R{3,1} + 7 R{3,5} + 7 R{3,7} + 7 R{3,11} <= 7
 R2_72: <= 0
 R2_73: 11 R{0,0} + 11 R{0,1} + 11 R{0,2} + 11 R{0,9} + 11 R{0,10}
   + 11 R{0,11} + 11 R{0,12} + 11 R{0,13} + 11 R{0,14} + 11 R{0,16}
   + 11 R{0,17} + 11 R{0,18} + 11 R{0,19} + 11 R{0,21} + 11 R{0,26} <= 11
 R2_74: 5 R{5,1} + 5 R{5,2} + 5 R{5,3} + 5 R{5,4} + 5 R{5,5} + 5 R{5,6}
   + 5 R{5,7} + 5 R{5,10} + 5 R{5,12} + 5 R{5,13} + 5 R{5,14} + 5 R{5,15}
   + 5 R{5,16} + 5 R{5,19} <= 5
 R2_75: 8 R{6,1} + 8 R{6,2} + 8 R{6,3} + 8 R{6,6} + 8 R{6,7} + 8 R{6,21}
   <= 8
 R2_76: 12 R{0,4} + 12 R{0,5} + 12 R{0,6} + 12 R{0,7} + 12 R{0,15}
   + 12 R{0,22} + 12 R{5,4} + 12 R{5,9} + 12 R{5,10} + 12 R{5,11}
   + 12 R{5,12} + 12 R{5,13} + 12 R{5,14} + 12 R{5,16} + 12 R{5,18}
   + 12 R{5,19} <= 12
 R2_77: 7 R{0,1} + 7 R{0,2} + 7 R{0,5} + 7 R{0,6} + 7 R{0,8} + 7 R{0,10}
   + 7 R{0,15} + 2 R{0,24} + 7 R{1,2} + 7 R{1,12} + 7 R{1,13} + 7 R{2,2}
   + 7 R{2,3} + 7 R{3,2} + 7 R{3,4} + 7 R{3,6} + 7 R{4,2} + 7 R{4,6}
   + 7 R{4,23} + 7 R{5,2} + 7 R{5,3} + 7 R{5,5} + 7 R{5,8} + 7 R{6,2}
   + 7 R{6,3} + 7 R{6,7} + 7 R{6,20} + 7 R{6,21} <= 7
Bounds
End
